n_res = 4;
rc = [ 12, 22, 11, 16 ];
n_tasks = 30;
d = [ 3, 8, 6, 5, 4, 1, 6, 10, 2, 5, 3, 8, 7, 1, 3, 2, 8, 4, 8, 2, 3, 10, 7, 8, 2, 10, 5, 1, 1, 9 ];
rr = [| 0, 8, 0, 0, 0, 3, 0, 0, 0, 0, 6, 4, 0, 5, 0, 3, 0, 0, 0, 0, 0, 0, 0, 0, 0, 0, 0, 9, 0, 0
      | 0, 0, 0, 6, 0, 0, 0, 5, 0, 0, 0, 0, 4, 0, 0, 0, 3, 9, 2, 10, 7, 0, 0, 0, 0, 3, 0, 0, 0, 0
      | 1, 0, 0, 0, 0, 0, 0, 0, 0, 5, 0, 0, 0, 0, 0, 0, 0, 0, 0, 0, 0, 0, 1, 0, 0, 0, 9, 0, 3, 2
      | 0, 0, 9, 0, 9, 0, 7, 0, 1, 0, 0, 0, 0, 0, 3, 0, 0, 0, 0, 0, 0, 1, 0, 7, 4, 0, 0, 0, 0, 0 |];
suc = [ { 2 }, 
        { 3 }, 
        { 4 }, 
        { 5 }, 
        { 6 }, 
        { 7 }, 
        { 8 }, 
        { 9 }, 
        { 10 }, 
        { 11 }, 
        { 12 }, 
        { 13 }, 
        { 14 }, 
        { 15 }, 
        { 16 }, 
        { 17 }, 
        { 18 }, 
        { 19 }, 
        { 20 }, 
        { 21 }, 
        { 22 }, 
        { 23 }, 
        { 24 }, 
        { 25 }, 
        { 26 }, 
        { 27 }, 
        { 28 }, 
        { 29 }, 
        { 30 }, 
        {  }]; 
